************************************************************************
file with basedata            : md354_.bas
initial value random generator: 937719789
************************************************************************
projects                      :  1
jobs (incl. supersource/sink ):  22
horizon                       :  159
RESOURCES
  - renewable                 :  2   R
  - nonrenewable              :  2   N
  - doubly constrained        :  0   D
************************************************************************
PROJECT INFORMATION:
pronr.  #jobs rel.date duedate tardcost  MPM-Time
    1     20      0       26        5       26
************************************************************************
PRECEDENCE RELATIONS:
jobnr.    #modes  #successors   successors
   1        1          3           2   3   4
   2        3          2          12  18
   3        3          3           5   7  13
   4        3          3           6   9  13
   5        3          2          11  14
   6        3          3           8  15  16
   7        3          3          11  16  19
   8        3          1          10
   9        3          3          11  14  19
  10        3          2          17  21
  11        3          2          15  17
  12        3          2          13  17
  13        3          1          19
  14        3          1          16
  15        3          2          18  20
  16        3          2          18  20
  17        3          1          20
  18        3          1          21
  19        3          1          22
  20        3          1          22
  21        3          1          22
  22        1          0        
************************************************************************
REQUESTS/DURATIONS:
jobnr. mode duration  R 1  R 2  N 1  N 2
------------------------------------------------------------------------
  1      1     0       0    0    0    0
  2      1     1       0    9    5    4
         2     2       6    0    5    3
         3     4       6    0    4    3
  3      1     1       0    9    7    3
         2     2       0    9    7    2
         3     9       6    0    6    1
  4      1     6       0    5    8   10
         2     6       9    0    8   10
         3     9       0    9    5   10
  5      1     9       0    4    9    2
         2     9       4    0    9    2
         3    10       3    0    8    2
  6      1     1       0    7    6    5
         2     2       0    5    6    5
         3     6       0    2    5    5
  7      1     2       0    7    9    8
         2     3       0    7    5    4
         3     4       0    6    4    1
  8      1     8       7    0    9    9
         2     9       0    1    6    6
         3    10       5    0    4    6
  9      1     3       7    0    9    9
         2     3       0    4    8    9
         3     4       8    0    6    9
 10      1     1       0    8    8    3
         2     3       8    0    7    2
         3     7       7    0    5    1
 11      1     5      10    0    4    9
         2     7       3    0    3    8
         3     9       0    9    2    4
 12      1     3       6    0    3    6
         2     5       3    0    2    4
         3    10       0    3    2    2
 13      1     3       0    8    6    5
         2     8       0    6    5    4
         3     9       4    0    3    3
 14      1     7       9    0   10    8
         2     8       0    7   10    6
         3     9       9    0    9    5
 15      1     5       3    0    4    4
         2     5       0    5    3    4
         3     9       3    0    2    4
 16      1     1       8    0    3    8
         2     3       8    0    3    4
         3     9       6    0    2    1
 17      1     1       3    0    8    9
         2     3       2    0    8    8
         3     5       0    4    7    8
 18      1     4       4    0    5    8
         2     9       1    0    4    8
         3    10       0    5    2    7
 19      1     7       7    0    5    5
         2     8       4    0    4    4
         3    10       0    5    3    3
 20      1     1       8    0    4    9
         2     2       6    0    2    8
         3     6       5    0    2    7
 21      1     2       0    3    5    4
         2     8       5    0    3    2
         3    10       5    0    1    1
 22      1     0       0    0    0    0
************************************************************************
RESOURCEAVAILABILITIES:
  R 1  R 2  N 1  N 2
   16   18   93   94
************************************************************************
MAXIMAL LAGS:
from  to  type  delay
    1   12   ES      0
    1    2   ES      0
    2   12   ES      0
    1    3   ES      0
    3   12   ES      0
    1    4   ES      0
    4   12   ES      0
    1    5   ES      0
    5   12   ES      0
    1    6   ES      0
    6   12   ES      0
    1    7   ES      0
    7   12   ES      0
    1    8   ES      0
    8   12   ES      0
    1    9   ES      0
    9   12   ES      0
    1   10   ES      0
   10   12   ES      0
    1   11   ES      0
   11   12   ES      0
    1   12   ES      0
    2   18   SS     -6
    2   18   SE     -9
    2   18   ES     -1
    2   18   EE      6
    3    5   SS      3
    3    5   SE     -1
    3    5   ES      2
    3    5   EE     10
    3    7   SS     -7
    3    7   SE      7
    3    7   ES     10
    3    7   EE      9
    3   13   SS     -8
    3   13   SE      9
    3   13   ES      2
    3   13   EE     -5
    4    6   SS     -9
    4    6   SE      4
    6    4   SE      0
    4    6   ES      0
    4    6   EE      5
    4    9   SS     12
    4    9   SE     11
    4    9   ES     -6
    4    9   EE     10
    4   13   SS    -11
    4   13   SE     -8
    4   13   ES      6
    4   13   EE    -10
    5   11   SS     -2
    5   11   SE      5
    5   11   ES     -1
    5   11   EE     10
    5   14   SS      9
    5   14   SE     -3
    5   14   ES      8
    5   14   EE     -7
    6    8   SS     -5
    6    8   SE     -5
    6    8   ES     -7
    6    8   EE     -3
    6   15   SS    -10
    6   15   SE      0
    6   15   ES     11
    6   15   EE     -1
    6   16   SS    -10
    6   16   SE      5
    6   16   ES     -1
    6   16   EE      8
    7   11   SS     11
    7   11   SE     -4
    7   11   ES      5
    7   11   EE     -5
    7   16   SS      6
    7   16   SE      1
    7   16   ES      0
    7   16   EE    -12
    7   19   SS      2
    7   19   SE     -6
    7   19   ES     -3
    7   19   EE     -3
    8   10   SS      0
    8   10   SE      3
    8   10   ES     10
    8   10   EE     -4
    9   11   SS      0
    9   11   SE     -7
    9   11   ES     11
    9   11   EE     -9
    9   14   SS     -1
    9   14   SE     11
    9   14   ES      8
    9   14   EE      6
    9   19   SS     -1
    9   19   SE      5
    9   19   ES     -3
    9   19   EE      8
   10   17   SS    -10
   10   17   SE      8
   10   17   ES      3
   10   17   EE     -4
   10   21   SS     11
   10   21   SE      7
   10   21   ES     -9
   10   21   EE      1
   11   15   SS    -10
   11   15   SE      2
   11   15   ES    -12
   11   15   EE     -2
   11   17   SS    -12
   11   17   SE     -7
   11   17   ES     -7
   11   17   EE    -10
   12   13   SS      4
   12   13   SE      9
   12   13   ES     -9
   12   13   EE      0
   12   17   SS      6
   12   17   SE      5
   12   17   ES    -10
   12   17   EE      8
   13   19   SS     -3
   13   19   SE     -9
   13   19   ES     -5
   13   19   EE     12
   14   16   SS     -3
   14   16   SE     -4
   14   16   ES      9
   14   16   EE      3
   15   18   SS      0
   15   18   SE     10
   15   18   ES    -11
   15   18   EE     10
   15   20   SS      6
   15   20   SE     -4
   15   20   ES      5
   15   20   EE     -6
   16   18   SS     10
   16   18   SE      3
   16   18   ES      2
   16   18   EE     -3
   16   20   SS    -12
   16   20   SE     11
   16   20   ES     -8
   16   20   EE      6
   17   20   SS     11
   17   20   SE     -8
   17   20   ES      5
   17   20   EE      0
   18   21   SS     -3
   18   21   SE      9
   18   21   ES      8
   18   21   EE     -5
   19   22   SS     -6
   19   22   SE     12
   19   22   ES    -12
   19   22   EE     -8
   20   22   SS      1
   20   22   SE      8
   20   22   ES     -1
   20   22   EE     11
   21   22   SS    -12
   21   22   SE      6
   21   22   ES     11
   21   22   EE      8
************************************************************************
